;symbolic execution tree
(push)
(assert (le x0 com.lowagie.text.pdf.PdfTemplate))
(check-sat)
(push)
(assert (le x0 com.lowagie.text.pdf.PdfImportedPage))
(check-sat)
(push)
(assert (le x0 com.lowagie.text.pdf.PdfImportedPage))
(check-sat)
(pop)
(push)
(assert (not (le x0 com.lowagie.text.pdf.PdfImportedPage)))
(check-sat)
(pop)
(push)
(assert (le x0 com.lowagie.text.pdf.PdfImportedPage))
(check-sat)
(pop)
(push)
(assert (not (le x0 com.lowagie.text.pdf.PdfImportedPage)))
(check-sat)
(pop)
(push)
(assert (le x0 com.lowagie.text.pdf.PdfImportedPage))
(check-sat)
(pop)
(push)
(assert (not (le x0 com.lowagie.text.pdf.PdfImportedPage)))
(check-sat)
(pop)
(pop)
(push)
(assert (not (le x0 com.lowagie.text.pdf.PdfImportedPage)))
(check-sat)
(push)
(assert (le x0 com.lowagie.text.pdf.PdfImportedPage))
(check-sat)
(pop)
(push)
(assert (not (le x0 com.lowagie.text.pdf.PdfImportedPage)))
(check-sat)
(push)
(assert (le x0 com.lowagie.text.pdf.PdfWriter))
(check-sat)
(pop)
(push)
(assert (not (le x0 com.lowagie.text.pdf.PdfWriter)))
(check-sat)
(push)
(assert (le x0 com.lowagie.text.pdf.PdfWriter))
(check-sat)
(pop)
(push)
(assert (not (le x0 com.lowagie.text.pdf.PdfWriter)))
(check-sat)
(pop)
(pop)
(pop)
(pop)
(push)
(assert (le x0 com.lowagie.text.pdf.PdfImportedPage))
(check-sat)
(push)
(assert (le x0 com.lowagie.text.pdf.PdfImportedPage))
(check-sat)
(pop)
(push)
(assert (not (le x0 com.lowagie.text.pdf.PdfImportedPage)))
(check-sat)
(pop)
(push)
(assert (le x0 com.lowagie.text.pdf.PdfImportedPage))
(check-sat)
(pop)
(push)
(assert (not (le x0 com.lowagie.text.pdf.PdfImportedPage)))
(check-sat)
(pop)
(push)
(assert (le x0 com.lowagie.text.pdf.PdfImportedPage))
(check-sat)
(push)
(assert (le x0 com.lowagie.text.pdf.PdfWriter))
(check-sat)
(pop)
(push)
(assert (not (le x0 com.lowagie.text.pdf.PdfWriter)))
(check-sat)
(pop)
(pop)
(push)
(assert (not (le x0 com.lowagie.text.pdf.PdfImportedPage)))
(check-sat)
(pop)
(push)
(assert (le x0 com.lowagie.text.pdf.PdfImportedPage))
(check-sat)
(pop)
(push)
(assert (not (le x0 com.lowagie.text.pdf.PdfImportedPage)))
(check-sat)
(pop)
(pop)
(push)
(assert (not (le x0 com.lowagie.text.pdf.PdfImportedPage)))
(check-sat)
(push)
(assert (le x0 com.lowagie.text.pdf.PdfImportedPage))
(check-sat)
(pop)
(push)
(assert (not (le x0 com.lowagie.text.pdf.PdfImportedPage)))
(check-sat)
(push)
(assert (le x0 com.lowagie.text.pdf.PdfImportedPage))
(check-sat)
(pop)
(push)
(assert (not (le x0 com.lowagie.text.pdf.PdfImportedPage)))
(check-sat)
(push)
(assert (le x0 com.lowagie.text.pdf.PdfImportedPage))
(check-sat)
(pop)
(push)
(assert (not (le x0 com.lowagie.text.pdf.PdfImportedPage)))
(check-sat)
(pop)
(pop)
(pop)
(push)
(assert (le x0 com.lowagie.text.pdf.PdfWriter))
(check-sat)
(pop)
(push)
(assert (not (le x0 com.lowagie.text.pdf.PdfWriter)))
(check-sat)
(pop)
(push)
(assert (le x0 com.lowagie.text.pdf.PdfImportedPage))
(check-sat)
(pop)
(push)
(assert (not (le x0 com.lowagie.text.pdf.PdfImportedPage)))
(check-sat)
(push)
(assert (le x0 com.lowagie.text.pdf.PdfImportedPage))
(check-sat)
(pop)
(push)
(assert (not (le x0 com.lowagie.text.pdf.PdfImportedPage)))
(check-sat)
(push)
(assert (le x0 com.lowagie.text.pdf.PdfImportedPage))
(check-sat)
(pop)
(push)
(assert (not (le x0 com.lowagie.text.pdf.PdfImportedPage)))
(check-sat)
(pop)
(pop)
(pop)
(push)
(assert (le x0 com.lowagie.text.pdf.PdfImportedPage))
(check-sat)
(pop)
(push)
(assert (not (le x0 com.lowagie.text.pdf.PdfImportedPage)))
(check-sat)
(pop)
(push)
(assert (le x0 com.lowagie.text.pdf.PdfImportedPage))
(check-sat)
(pop)
(push)
(assert (not (le x0 com.lowagie.text.pdf.PdfImportedPage)))
(check-sat)
(push)
(assert (le x0 com.lowagie.text.pdf.PdfImportedPage))
(check-sat)
(pop)
(push)
(assert (not (le x0 com.lowagie.text.pdf.PdfImportedPage)))
(check-sat)
(pop)
(pop)
(push)
(assert (le x0 com.lowagie.text.pdf.PdfImportedPage))
(check-sat)
(pop)
(push)
(assert (not (le x0 com.lowagie.text.pdf.PdfImportedPage)))
(check-sat)
(push)
(assert (le x0 com.lowagie.text.pdf.PdfWriter))
(check-sat)
(pop)
(push)
(assert (not (le x0 com.lowagie.text.pdf.PdfWriter)))
(check-sat)
(pop)
(pop)
(push)
(assert (le x0 com.lowagie.text.pdf.PdfWriter))
(check-sat)
(pop)
(push)
(assert (not (le x0 com.lowagie.text.pdf.PdfWriter)))
(check-sat)
(pop)
(push)
(assert (le x0 com.lowagie.text.pdf.PdfImportedPage))
(check-sat)
(pop)
(push)
(assert (not (le x0 com.lowagie.text.pdf.PdfImportedPage)))
(check-sat)
(push)
(assert (le x0 com.lowagie.text.pdf.PdfImportedPage))
(check-sat)
(pop)
(push)
(assert (not (le x0 com.lowagie.text.pdf.PdfImportedPage)))
(check-sat)
(pop)
(pop)
(push)
(assert (le x0 com.lowagie.text.pdf.PdfImportedPage))
(check-sat)
(pop)
(push)
(assert (not (le x0 com.lowagie.text.pdf.PdfImportedPage)))
(check-sat)
(pop)
(pop)
(push)
(assert (le x0 com.lowagie.text.pdf.PdfImportedPage))
(check-sat)
(pop)
(push)
(assert (not (le x0 com.lowagie.text.pdf.PdfImportedPage)))
(check-sat)
(push)
(assert (le x0 com.lowagie.text.pdf.PdfImportedPage))
(check-sat)
(pop)
(push)
(assert (not (le x0 com.lowagie.text.pdf.PdfImportedPage)))
(check-sat)
(pop)
(push)
(assert (le x0 com.lowagie.text.pdf.PdfImportedPage))
(check-sat)
(pop)
(push)
(assert (not (le x0 com.lowagie.text.pdf.PdfImportedPage)))
(check-sat)
(pop)
(push)
(assert (le x0 com.lowagie.text.pdf.PdfImportedPage))
(check-sat)
(pop)
(push)
(assert (not (le x0 com.lowagie.text.pdf.PdfImportedPage)))
(check-sat)
(push)
(assert (le x0 com.lowagie.text.pdf.PdfImportedPage))
(check-sat)
(pop)
(push)
(assert (not (le x0 com.lowagie.text.pdf.PdfImportedPage)))
(check-sat)
(pop)
(push)
(assert (le x0 com.lowagie.text.pdf.PdfImportedPage))
(check-sat)
(pop)
(push)
(assert (not (le x0 com.lowagie.text.pdf.PdfImportedPage)))
(check-sat)
(pop)
(push)
(assert (le x0 com.lowagie.text.pdf.PdfImportedPage))
(check-sat)
(pop)
(push)
(assert (not (le x0 com.lowagie.text.pdf.PdfImportedPage)))
(check-sat)
(pop)
(push)
(assert (le x0 com.lowagie.text.pdf.PdfImportedPage))
(check-sat)
(pop)
(push)
(assert (not (le x0 com.lowagie.text.pdf.PdfImportedPage)))
(check-sat)
(pop)
(pop)
(pop)
(push)
(assert (le x0 com.lowagie.text.pdf.PdfImportedPage))
(check-sat)
(push)
(assert (le x0 com.lowagie.text.pdf.PdfImportedPage))
(check-sat)
(push)
(assert (le x0 com.lowagie.text.pdf.PdfImportedPage))
(check-sat)
(push)
(assert (le x0 com.lowagie.text.pdf.PdfWriter))
(check-sat)
(pop)
(push)
(assert (not (le x0 com.lowagie.text.pdf.PdfWriter)))
(check-sat)
(pop)
(pop)
(push)
(assert (not (le x0 com.lowagie.text.pdf.PdfImportedPage)))
(check-sat)
(pop)
(push)
(assert (le x0 com.lowagie.text.pdf.PdfImportedPage))
(check-sat)
(pop)
(push)
(assert (not (le x0 com.lowagie.text.pdf.PdfImportedPage)))
(check-sat)
(pop)
(push)
(assert (le x0 com.lowagie.text.pdf.PdfImportedPage))
(check-sat)
(pop)
(push)
(assert (not (le x0 com.lowagie.text.pdf.PdfImportedPage)))
(check-sat)
(pop)
(pop)
(push)
(assert (not (le x0 com.lowagie.text.pdf.PdfImportedPage)))
(check-sat)
(pop)
(push)
(assert (le x0 com.lowagie.text.pdf.PdfImportedPage))
(check-sat)
(pop)
(push)
(assert (not (le x0 com.lowagie.text.pdf.PdfImportedPage)))
(check-sat)
(pop)
(pop)
(push)
(assert (not (le x0 com.lowagie.text.pdf.PdfImportedPage)))
(check-sat)
(push)
(assert (le x0 com.lowagie.text.pdf.PdfImportedPage))
(check-sat)
(pop)
(push)
(assert (not (le x0 com.lowagie.text.pdf.PdfImportedPage)))
(check-sat)
(push)
(assert (le x0 com.lowagie.text.pdf.PdfImportedPage))
(check-sat)
(pop)
(push)
(assert (not (le x0 com.lowagie.text.pdf.PdfImportedPage)))
(check-sat)
(pop)
(push)
(assert (le x0 com.lowagie.text.pdf.PdfWriter))
(check-sat)
(pop)
(push)
(assert (not (le x0 com.lowagie.text.pdf.PdfWriter)))
(check-sat)
(pop)
(push)
(assert (le x0 com.lowagie.text.pdf.PdfWriter))
(check-sat)
(pop)
(push)
(assert (not (le x0 com.lowagie.text.pdf.PdfWriter)))
(check-sat)
(pop)
(push)
(assert (le x0 com.lowagie.text.pdf.PdfImportedPage))
(check-sat)
(pop)
(push)
(assert (not (le x0 com.lowagie.text.pdf.PdfImportedPage)))
(check-sat)
(pop)
(pop)
(pop)
(push)
(assert (le x0 com.lowagie.text.pdf.PdfImportedPage))
(check-sat)
(push)
(assert (le x0 com.lowagie.text.pdf.PdfImportedPage))
(check-sat)
(pop)
(push)
(assert (not (le x0 com.lowagie.text.pdf.PdfImportedPage)))
(check-sat)
(pop)
(pop)
(push)
(assert (not (le x0 com.lowagie.text.pdf.PdfImportedPage)))
(check-sat)
(pop)
(push)
(assert (le x0 com.lowagie.text.pdf.PdfImportedPage))
(check-sat)
(pop)
(push)
(assert (not (le x0 com.lowagie.text.pdf.PdfImportedPage)))
(check-sat)
(push)
(assert (le x0 com.lowagie.text.pdf.PdfImportedPage))
(check-sat)
(pop)
(push)
(assert (not (le x0 com.lowagie.text.pdf.PdfImportedPage)))
(check-sat)
(pop)
(push)
(assert (le x0 com.lowagie.text.pdf.PdfWriter))
(check-sat)
(pop)
(push)
(assert (not (le x0 com.lowagie.text.pdf.PdfWriter)))
(check-sat)
(pop)
(push)
(assert (le x0 com.lowagie.text.pdf.PdfImportedPage))
(check-sat)
(pop)
(push)
(assert (not (le x0 com.lowagie.text.pdf.PdfImportedPage)))
(check-sat)
(pop)
(pop)
(pop)
(push)
(assert (not (le x0 com.lowagie.text.pdf.PdfTemplate)))
(check-sat)
(push)
(assert (le x0 com.lowagie.text.pdf.PdfImportedPage))
(check-sat)
(pop)
(push)
(assert (not (le x0 com.lowagie.text.pdf.PdfImportedPage)))
(check-sat)
(push)
(assert (le x0 com.lowagie.text.pdf.PdfImportedPage))
(check-sat)
(pop)
(push)
(assert (not (le x0 com.lowagie.text.pdf.PdfImportedPage)))
(check-sat)
(push)
(assert (le x0 com.lowagie.text.pdf.PdfImportedPage))
(check-sat)
(pop)
(push)
(assert (not (le x0 com.lowagie.text.pdf.PdfImportedPage)))
(check-sat)
(pop)
(pop)
(push)
(assert (le x0 com.lowagie.text.pdf.PdfImportedPage))
(check-sat)
(pop)
(push)
(assert (not (le x0 com.lowagie.text.pdf.PdfImportedPage)))
(check-sat)
(push)
(assert (le x0 com.lowagie.text.pdf.PdfWriter))
(check-sat)
(pop)
(push)
(assert (not (le x0 com.lowagie.text.pdf.PdfWriter)))
(check-sat)
(pop)
(pop)
(push)
(assert (le x0 com.lowagie.text.pdf.PdfImportedPage))
(check-sat)
(pop)
(push)
(assert (not (le x0 com.lowagie.text.pdf.PdfImportedPage)))
(check-sat)
(push)
(assert (le x0 com.lowagie.text.pdf.PdfImportedPage))
(check-sat)
(pop)
(push)
(assert (not (le x0 com.lowagie.text.pdf.PdfImportedPage)))
(check-sat)
(pop)
(pop)
(push)
(assert (le x0 com.lowagie.text.pdf.PdfImportedPage))
(check-sat)
(pop)
(push)
(assert (not (le x0 com.lowagie.text.pdf.PdfImportedPage)))
(check-sat)
(push)
(assert (le x0 com.lowagie.text.pdf.PdfImportedPage))
(check-sat)
(pop)
(push)
(assert (not (le x0 com.lowagie.text.pdf.PdfImportedPage)))
(check-sat)
(pop)
(pop)
(pop)
(push)
(assert (le x0 com.lowagie.text.pdf.PdfImportedPage))
(check-sat)
(pop)
(push)
(assert (not (le x0 com.lowagie.text.pdf.PdfImportedPage)))
(check-sat)
(push)
(assert (le x0 com.lowagie.text.pdf.PdfWriter))
(check-sat)
(pop)
(push)
(assert (not (le x0 com.lowagie.text.pdf.PdfWriter)))
(check-sat)
(pop)
(pop)
(push)
(assert (le x0 com.lowagie.text.pdf.PdfImportedPage))
(check-sat)
(pop)
(push)
(assert (not (le x0 com.lowagie.text.pdf.PdfImportedPage)))
(check-sat)
(push)
(assert (le x0 com.lowagie.text.pdf.PdfWriter))
(check-sat)
(push)
(assert (le x0 com.lowagie.text.pdf.PdfWriter))
(check-sat)
(push)
(assert (le x0 com.lowagie.text.pdf.PdfWriter))
(check-sat)
(pop)
(push)
(assert (not (le x0 com.lowagie.text.pdf.PdfWriter)))
(check-sat)
(pop)
(pop)
(push)
(assert (not (le x0 com.lowagie.text.pdf.PdfWriter)))
(check-sat)
(pop)
(pop)
(push)
(assert (not (le x0 com.lowagie.text.pdf.PdfWriter)))
(check-sat)
(pop)
(pop)
(push)
(assert (le x0 com.lowagie.text.pdf.PdfImportedPage))
(check-sat)
(pop)
(push)
(assert (not (le x0 com.lowagie.text.pdf.PdfImportedPage)))
(check-sat)
(push)
(assert (le x0 com.lowagie.text.pdf.PdfWriter))
(check-sat)
(pop)
(push)
(assert (not (le x0 com.lowagie.text.pdf.PdfWriter)))
(check-sat)
(push)
(assert (le x0 com.lowagie.text.pdf.PdfWriter))
(check-sat)
(pop)
(push)
(assert (not (le x0 com.lowagie.text.pdf.PdfWriter)))
(check-sat)
(pop)
(pop)
(push)
(assert (le x0 com.lowagie.text.pdf.PdfWriter))
(check-sat)
(pop)
(push)
(assert (not (le x0 com.lowagie.text.pdf.PdfWriter)))
(check-sat)
(push)
(assert (le x0 com.lowagie.text.pdf.PdfWriter))
(check-sat)
(pop)
(push)
(assert (not (le x0 com.lowagie.text.pdf.PdfWriter)))
(check-sat)
(push)
(assert (le x0 com.lowagie.text.pdf.PdfWriter))
(check-sat)
(pop)
(push)
(assert (not (le x0 com.lowagie.text.pdf.PdfWriter)))
(check-sat)
(pop)
(pop)
(pop)
(pop)
(push)
(assert (le x0 com.lowagie.text.pdf.PdfImportedPage))
(check-sat)
(pop)
(push)
(assert (not (le x0 com.lowagie.text.pdf.PdfImportedPage)))
(check-sat)
(push)
(assert (le x0 com.lowagie.text.pdf.PdfImportedPage))
(check-sat)
(pop)
(push)
(assert (not (le x0 com.lowagie.text.pdf.PdfImportedPage)))
(check-sat)
(pop)
(push)
(assert (le x0 com.lowagie.text.pdf.PdfImportedPage))
(check-sat)
(pop)
(push)
(assert (not (le x0 com.lowagie.text.pdf.PdfImportedPage)))
(check-sat)
(pop)
(pop)
(push)
(assert (le x0 com.lowagie.text.pdf.PdfImportedPage))
(check-sat)
(pop)
(push)
(assert (not (le x0 com.lowagie.text.pdf.PdfImportedPage)))
(check-sat)
(push)
(assert (le x0 com.lowagie.text.pdf.PdfWriter))
(check-sat)
(pop)
(push)
(assert (not (le x0 com.lowagie.text.pdf.PdfWriter)))
(check-sat)
(pop)
(push)
(assert (le x0 com.lowagie.text.pdf.PdfImportedPage))
(check-sat)
(pop)
(push)
(assert (not (le x0 com.lowagie.text.pdf.PdfImportedPage)))
(check-sat)
(pop)
(pop)
(push)
(assert (le x0 com.lowagie.text.pdf.PdfImportedPage))
(check-sat)
(pop)
(push)
(assert (not (le x0 com.lowagie.text.pdf.PdfImportedPage)))
(check-sat)
(push)
(assert (le x0 com.lowagie.text.pdf.PdfImportedPage))
(check-sat)
(pop)
(push)
(assert (not (le x0 com.lowagie.text.pdf.PdfImportedPage)))
(check-sat)
(push)
(assert (le x0 com.lowagie.text.pdf.PdfWriter))
(check-sat)
(pop)
(push)
(assert (not (le x0 com.lowagie.text.pdf.PdfWriter)))
(check-sat)
(pop)
(pop)
(pop)
(push)
(assert (le x0 com.lowagie.text.pdf.PdfImportedPage))
(check-sat)
(pop)
(push)
(assert (not (le x0 com.lowagie.text.pdf.PdfImportedPage)))
(check-sat)
(pop)
(push)
(assert (le x0 com.lowagie.text.pdf.PdfImportedPage))
(check-sat)
(pop)
(push)
(assert (not (le x0 com.lowagie.text.pdf.PdfImportedPage)))
(check-sat)
(push)
(assert (le x0 com.lowagie.text.pdf.PdfWriter))
(check-sat)
(push)
(assert (le x0 com.lowagie.text.pdf.PdfWriter))
(check-sat)
(pop)
(push)
(assert (not (le x0 com.lowagie.text.pdf.PdfWriter)))
(check-sat)
(pop)
(push)
(assert (le x0 com.lowagie.text.pdf.PdfWriter))
(check-sat)
(pop)
(push)
(assert (not (le x0 com.lowagie.text.pdf.PdfWriter)))
(check-sat)
(pop)
(push)
(assert (le x0 com.lowagie.text.pdf.PdfWriter))
(check-sat)
(pop)
(push)
(assert (not (le x0 com.lowagie.text.pdf.PdfWriter)))
(check-sat)
(pop)
(pop)
(push)
(assert (not (le x0 com.lowagie.text.pdf.PdfWriter)))
(check-sat)
(pop)
(pop)
(push)
(assert (le x0 com.lowagie.text.pdf.PdfImportedPage))
(check-sat)
(pop)
(push)
(assert (not (le x0 com.lowagie.text.pdf.PdfImportedPage)))
(check-sat)
(push)
(assert (le x0 com.lowagie.text.pdf.PdfImportedPage))
(check-sat)
(pop)
(push)
(assert (not (le x0 com.lowagie.text.pdf.PdfImportedPage)))
(check-sat)
(pop)
(pop)
(push)
(assert (le x0 com.lowagie.text.pdf.PdfImportedPage))
(check-sat)
(pop)
(push)
(assert (not (le x0 com.lowagie.text.pdf.PdfImportedPage)))
(check-sat)
(pop)
(push)
(assert (le x0 com.lowagie.text.pdf.PdfImportedPage))
(check-sat)
(pop)
(push)
(assert (not (le x0 com.lowagie.text.pdf.PdfImportedPage)))
(check-sat)
(push)
(assert (le x0 com.lowagie.text.pdf.PdfWriter))
(check-sat)
(pop)
(push)
(assert (not (le x0 com.lowagie.text.pdf.PdfWriter)))
(check-sat)
(push)
(assert (le x0 com.lowagie.text.pdf.PdfWriter))
(check-sat)
(pop)
(push)
(assert (not (le x0 com.lowagie.text.pdf.PdfWriter)))
(check-sat)
(pop)
(pop)
(push)
(assert (le x0 com.lowagie.text.pdf.PdfWriter))
(check-sat)
(pop)
(push)
(assert (not (le x0 com.lowagie.text.pdf.PdfWriter)))
(check-sat)
(push)
(assert (le x0 com.lowagie.text.pdf.PdfWriter))
(check-sat)
(pop)
(push)
(assert (not (le x0 com.lowagie.text.pdf.PdfWriter)))
(check-sat)
(pop)
(pop)
(pop)
(push)
(assert (le x0 com.lowagie.text.pdf.PdfImportedPage))
(check-sat)
(pop)
(push)
(assert (not (le x0 com.lowagie.text.pdf.PdfImportedPage)))
(check-sat)
(push)
(assert (le x0 com.lowagie.text.pdf.PdfImportedPage))
(check-sat)
(pop)
(push)
(assert (not (le x0 com.lowagie.text.pdf.PdfImportedPage)))
(check-sat)
(pop)
(pop)
(push)
(assert (le x0 com.lowagie.text.pdf.PdfImportedPage))
(check-sat)
(pop)
(push)
(assert (not (le x0 com.lowagie.text.pdf.PdfImportedPage)))
(check-sat)
(pop)
(push)
(assert (le x0 com.lowagie.text.pdf.PdfImportedPage))
(check-sat)
(pop)
(push)
(assert (not (le x0 com.lowagie.text.pdf.PdfImportedPage)))
(check-sat)
(push)
(assert (le x0 com.lowagie.text.pdf.PdfImportedPage))
(check-sat)
(pop)
(push)
(assert (not (le x0 com.lowagie.text.pdf.PdfImportedPage)))
(check-sat)
(push)
(assert (le x0 com.lowagie.text.pdf.PdfImportedPage))
(check-sat)
(pop)
(push)
(assert (not (le x0 com.lowagie.text.pdf.PdfImportedPage)))
(check-sat)
(pop)
(pop)
(pop)
(pop)
